\ This file has been generated by DOcplex
\ ENCODING=ISO-8859-1
\Problem name: AMC Assignment Problem

Maximize
 obj: 90 x_0_0 + 80 x_0_1 + 75 x_0_2 + 35 x_1_0 + 85 x_1_1 + 55 x_1_2 + 45 x_2_0
      + 110 x_2_1 + 95 x_2_2
Subject To
 c1: x_0_0 + x_0_1 + x_0_2 <= 1
 c2: x_1_0 + x_1_1 + x_1_2 <= 1
 c3: x_2_0 + x_2_1 + x_2_2 <= 1
 c4: x_0_0 + x_1_0 + x_2_0 = 1
 c5: x_0_1 + x_1_1 + x_2_1 = 1
 c6: x_0_2 + x_1_2 + x_2_2 = 1

Bounds
 0 <= x_0_0 <= 1
 0 <= x_0_1 <= 1
 0 <= x_0_2 <= 1
 0 <= x_1_0 <= 1
 0 <= x_1_1 <= 1
 0 <= x_1_2 <= 1
 0 <= x_2_0 <= 1
 0 <= x_2_1 <= 1
 0 <= x_2_2 <= 1

Binaries
 x_0_0 x_0_1 x_0_2 x_1_0 x_1_1 x_1_2 x_2_0 x_2_1 x_2_2
End
